
n_res = 4;
rcap = [70, 64, 443, 519];
rtype = [1, 1, 2, 2];
n_tasks = 100;
modes =  [{1, 2, 3}, {4, 5, 6}, {7, 8, 9}, {10, 11, 12}, {13, 14, 15}, {16, 17, 18}, {19, 20, 21}, {22, 23, 24}, {25, 26, 27}, {28, 29, 30}, {31, 32, 33}, {34, 35, 36}, {37, 38, 39}, {40, 41, 42}, {43, 44, 45}, {46, 47, 48}, {49, 50, 51}, {52, 53, 54}, {55, 56, 57}, {58, 59, 60}, {61, 62, 63}, {64, 65, 66}, {67, 68, 69}, {70, 71, 72}, {73, 74, 75}, {76, 77, 78}, {79, 80, 81}, {82, 83, 84}, {85, 86, 87}, {88, 89, 90}, {91, 92, 93}, {94, 95, 96}, {97, 98, 99}, {100, 101, 102}, {103, 104, 105}, {106, 107, 108}, {109, 110, 111}, {112, 113, 114}, {115, 116, 117}, {118, 119, 120}, {121, 122, 123}, {124, 125, 126}, {127, 128, 129}, {130, 131, 132}, {133, 134, 135}, {136, 137, 138}, {139, 140, 141}, {142, 143, 144}, {145, 146, 147}, {148, 149, 150}, {151, 152, 153}, {154, 155, 156}, {157, 158, 159}, {160, 161, 162}, {163, 164, 165}, {166, 167, 168}, {169, 170, 171}, {172, 173, 174}, {175, 176, 177}, {178, 179, 180}, {181, 182, 183}, {184, 185, 186}, {187, 188, 189}, {190, 191, 192}, {193, 194, 195}, {196, 197, 198}, {199, 200, 201}, {202, 203, 204}, {205, 206, 207}, {208, 209, 210}, {211, 212, 213}, {214, 215, 216}, {217, 218, 219}, {220, 221, 222}, {223, 224, 225}, {226, 227, 228}, {229, 230, 231}, {232, 233, 234}, {235, 236, 237}, {238, 239, 240}, {241, 242, 243}, {244, 245, 246}, {247, 248, 249}, {250, 251, 252}, {253, 254, 255}, {256, 257, 258}, {259, 260, 261}, {262, 263, 264}, {265, 266, 267}, {268, 269, 270}, {271, 272, 273}, {274, 275, 276}, {277, 278, 279}, {280, 281, 282}, {283, 284, 285}, {286, 287, 288}, {289, 290, 291}, {292, 293, 294}, {295, 296, 297}, {298, 299, 300}];
succ =  [{97, 96, 94, 69, 68, 67, 61, 60, 58, 57, 53, 49, 48, 44, 40, 37, 28, 23}, {100, 98, 68, 67, 64, 53, 52, 48, 47, 44, 42, 37, 36, 33, 32, 28}, {97, 70, 68, 66, 60, 56, 52, 50, 49, 47, 44, 41, 31, 29}, {100, 96, 94, 68, 67, 66, 60, 49, 42, 40, 29, 23}, {97, 89, 68, 67, 60, 56, 48, 47, 45, 44, 37, 31, 28}, {91, 89, 70, 66, 58, 53, 48, 41, 40, 35, 34, 32, 31}, {100, 98, 95, 90, 86, 68, 67, 63, 58, 50, 49, 44, 42, 38, 32, 31}, {100, 98, 97, 93, 87, 67, 64, 63, 47, 44, 43, 32, 28}, {96, 94, 92, 68, 67, 66, 63, 46, 44, 42, 36, 34, 29}, {94, 91, 89, 81, 64, 61, 60, 56, 53, 48, 44, 42, 37, 31}, {99, 90, 89, 69, 68, 66, 64, 62, 48, 45, 32, 25}, {100, 94, 93, 90, 85, 68, 66, 62, 56, 53, 49, 45, 38, 36}, {99, 94, 93, 89, 85, 83, 82, 67, 48, 46, 37, 29}, {96, 95, 94, 93, 92, 90, 86, 68, 67, 66, 62, 61, 60, 49, 39, 36}, {98, 96, 91, 90, 88, 87, 82, 79, 71, 68, 67, 66, 65, 64, 54, 53, 36}, {98, 97, 96, 95, 93, 92, 91, 90, 89, 88, 83, 69, 67, 66, 65, 63, 61, 60, 59}, {97, 94, 92, 90, 89, 88, 86, 83, 65, 60, 59, 45, 44, 42}, {97, 94, 91, 89, 86, 84, 83, 69, 66, 63, 60, 59, 57, 41}, {95, 94, 91, 90, 81, 67, 66, 61, 59, 53, 31}, {98, 97, 95, 93, 92, 89, 87, 85, 84, 83, 81, 79, 61, 60, 59, 53}, {96, 94, 93, 92, 89, 83, 73, 72, 69, 67, 65, 60, 53, 50}, {95, 94, 93, 89, 86, 85, 83, 74, 66, 60, 46, 45}, {93, 90, 89, 87, 85, 84, 83, 82, 77, 73, 65, 63, 62, 59, 56}, {99, 93, 91, 90, 89, 87, 86, 85, 83, 82, 81, 78, 77, 76, 75, 73, 72, 71, 68, 65}, {97, 94, 91, 87, 86, 84, 83, 81, 78, 76, 75, 63, 47}, {97, 95, 94, 92, 91, 89, 88, 86, 80, 79, 77, 71, 70, 61, 59}, {95, 93, 92, 91, 90, 88, 86, 85, 83, 82, 81, 78, 77, 74, 73, 72, 60}, {99, 91, 90, 86, 83, 82, 80, 79, 78, 76, 73, 66, 65, 62, 59}, {98, 91, 87, 86, 79, 78, 76, 73, 69, 62, 57}, {97, 94, 88, 85, 84, 82, 80, 78, 77, 76, 75, 74, 73, 62}, {96, 93, 88, 85, 84, 83, 82, 79, 78, 77, 76, 75, 74, 73, 71}, {94, 88, 85, 84, 83, 81, 79, 75, 74, 73, 72, 60}, {94, 92, 87, 85, 82, 81, 80, 79, 78, 77, 76, 73, 72}, {85, 84, 83, 82, 81, 76, 73, 71, 59}, {97, 95, 88, 86, 83, 79, 77, 76, 75, 67}, {97, 89, 83, 81, 78, 77, 76, 59}, {95, 90, 79, 76, 71, 66, 59}, {88, 87, 84, 82, 81, 78, 77, 76, 73, 71}, {85, 84, 83, 79, 78, 76, 74, 73, 72, 71}, {98, 93, 87, 82, 79, 75, 74, 73, 72}, {90, 87, 82, 80, 79, 78, 73, 72, 71}, {93, 87, 82, 79, 77, 73, 62}, {96, 89, 83, 81, 78, 72, 65}, {80, 78, 76, 75, 74, 72, 71}, {96, 87, 84, 82, 81, 79, 73}, {90, 87, 84, 78, 76, 75, 73}, {88, 77, 73, 72, 71, 65}, {77, 71, 65, 59}, {91, 89, 71, 59}, {91, 85, 79, 76, 75, 71}, {92, 81, 80, 76, 72, 71}, {89, 80, 73, 71, 69}, {86, 77, 76, 75, 74}, {85, 80, 75, 74, 73}, {94, 86, 83, 77, 73}, {98, 92, 80, 74}, {95, 88, 80, 77}, {92, 81, 79, 72}, {75, 74, 72}, {80, 76, 71}, {82, 78, 73}, {72, 71}, {80, 79}, {92, 78}, {74}, {77}, {78}, {84}, {81}, {75}, {}, {}, {}, {}, {}, {}, {}, {}, {}, {}, {}, {}, {}, {}, {}, {}, {}, {}, {}, {}, {}, {}, {}, {}, {}, {}, {}, {}, {}, {}];
n_opt = 300;
dur = [4, 5, 9, 3, 8, 9, 2, 6, 7, 6, 7, 8, 2, 6, 9, 4, 6, 8, 4, 5, 9, 2, 5, 6, 8, 9, 10, 1, 7, 9, 7, 8, 9, 5, 6, 9, 3, 5, 8, 6, 7, 8, 1, 4, 6, 5, 7, 9, 2, 8, 10, 1, 9, 10, 5, 6, 7, 3, 8, 9, 6, 8, 9, 2, 4, 10, 4, 8, 9, 5, 6, 10, 1, 3, 5, 6, 8, 9, 1, 5, 8, 1, 8, 9, 3, 4, 6, 4, 5, 10, 4, 9, 10, 2, 8, 9, 2, 5, 7, 7, 8, 9, 1, 6, 7, 2, 4, 9, 1, 4, 7, 4, 6, 7, 3, 5, 10, 1, 3, 10, 4, 8, 9, 3, 4, 6, 1, 2, 5, 1, 2, 3, 2, 5, 10, 1, 2, 8, 6, 9, 10, 3, 4, 6, 2, 5, 6, 2, 6, 10, 4, 5, 10, 1, 5, 7, 5, 6, 10, 3, 4, 8, 4, 6, 7, 1, 2, 8, 1, 3, 9, 3, 8, 10, 5, 6, 8, 3, 5, 6, 4, 5, 10, 2, 4, 10, 3, 5, 6, 1, 2, 10, 4, 5, 9, 4, 5, 8, 2, 8, 10, 2, 3, 4, 3, 3, 8, 5, 8, 9, 6, 7, 8, 3, 7, 9, 2, 3, 4, 2, 7, 8, 2, 3, 7, 2, 8, 9, 5, 8, 9, 1, 2, 5, 2, 8, 10, 3, 7, 8, 2, 9, 10, 7, 8, 10, 1, 5, 6, 3, 6, 10, 6, 7, 8, 1, 2, 6, 4, 5, 6, 2, 8, 9, 5, 6, 10, 4, 6, 10, 1, 4, 5, 2, 6, 9, 1, 2, 10, 2, 8, 9, 2, 6, 7, 4, 8, 10, 2, 4, 5, 3, 7, 8, 4, 5, 8, 2, 4, 9];
rreq = [|2, 2, 2, 2, 1, 1, 4, 3, 3, 5, 3, 2, 5, 4, 4, 4, 4, 4, 3, 2, 1, 4, 2, 1, 5, 4, 4, 5, 5, 5, 4, 3, 3, 1, 1, 1, 5, 5, 5, 1, 1, 1, 2, 2, 2, 3, 2, 1, 3, 1, 1, 3, 2, 2, 5, 3, 3, 4, 4, 4, 4, 4, 4, 2, 1, 1, 3, 3, 3, 2, 2, 1, 2, 2, 2, 4, 4, 4, 3, 3, 1, 5, 4, 4, 5, 4, 2, 4, 4, 3, 1, 1, 1, 4, 4, 2, 4, 3, 2, 3, 3, 2, 3, 3, 2, 4, 3, 3, 3, 3, 3, 3, 2, 2, 1, 1, 1, 4, 2, 2, 2, 1, 1, 4, 4, 4, 5, 4, 3, 3, 2, 2, 3, 3, 3, 4, 4, 4, 3, 3, 3, 5, 5, 5, 2, 2, 2, 2, 2, 2, 2, 2, 2, 3, 2, 1, 4, 4, 4, 1, 1, 1, 1, 1, 1, 4, 3, 3, 2, 1, 1, 3, 3, 1, 2, 2, 1, 4, 3, 3, 5, 5, 5, 3, 3, 3, 4, 4, 4, 3, 3, 1, 3, 3, 3, 4, 3, 2, 3, 3, 3, 2, 1, 1, 5, 5, 5, 4, 3, 3, 5, 4, 2, 4, 4, 4, 1, 1, 1, 3, 2, 2, 4, 3, 3, 5, 4, 4, 5, 3, 3, 4, 2, 1, 1, 1, 1, 3, 3, 3, 4, 4, 3, 4, 3, 3, 3, 3, 2, 1, 1, 1, 3, 3, 3, 3, 2, 2, 4, 4, 4, 4, 3, 2, 5, 4, 4, 3, 3, 3, 5, 5, 5, 4, 4, 4, 4, 4, 4, 5, 3, 3, 5, 3, 1, 3, 3, 1, 2, 2, 2, 3, 2, 1, 5, 5, 5, 5, 4, 2
 |4, 4, 4, 3, 1, 1, 4, 2, 2, 4, 2, 2, 3, 3, 2, 2, 2, 2, 2, 2, 2, 5, 4, 4, 4, 3, 3, 5, 2, 1, 2, 2, 2, 4, 3, 2, 3, 2, 2, 2, 2, 2, 1, 1, 1, 3, 2, 2, 4, 4, 4, 3, 3, 3, 1, 1, 1, 2, 1, 1, 3, 3, 3, 2, 2, 2, 5, 3, 3, 2, 2, 2, 4, 3, 2, 4, 4, 4, 2, 2, 2, 3, 2, 2, 4, 4, 4, 3, 2, 2, 5, 3, 2, 1, 1, 1, 3, 2, 2, 5, 2, 1, 5, 4, 3, 4, 3, 2, 4, 3, 3, 5, 2, 2, 4, 4, 4, 3, 2, 2, 3, 2, 2, 2, 2, 1, 4, 3, 3, 3, 3, 3, 2, 2, 2, 4, 2, 2, 4, 3, 3, 5, 5, 5, 4, 3, 3, 2, 2, 1, 3, 2, 1, 4, 3, 3, 5, 4, 4, 5, 4, 3, 4, 3, 2, 3, 2, 1, 5, 3, 3, 4, 3, 3, 4, 3, 1, 4, 3, 3, 4, 2, 1, 3, 2, 1, 2, 1, 1, 2, 1, 1, 2, 2, 2, 4, 4, 4, 5, 5, 5, 5, 5, 5, 3, 2, 2, 2, 2, 1, 4, 4, 3, 1, 1, 1, 2, 1, 1, 3, 2, 2, 4, 2, 1, 3, 1, 1, 5, 3, 3, 5, 3, 1, 3, 1, 1, 5, 3, 2, 3, 2, 2, 3, 2, 1, 4, 3, 3, 5, 4, 4, 2, 2, 2, 5, 4, 4, 5, 4, 3, 3, 3, 3, 3, 3, 3, 4, 2, 2, 5, 5, 5, 5, 3, 2, 4, 3, 3, 1, 1, 1, 2, 1, 1, 4, 3, 2, 3, 3, 2, 3, 2, 2, 4, 3, 3, 4, 4, 3
 |9, 5, 3, 9, 6, 1, 2, 2, 2, 8, 6, 4, 10, 8, 5, 4, 4, 4, 5, 2, 2, 6, 6, 4, 5, 3, 3, 8, 6, 4, 9, 8, 8, 6, 6, 6, 2, 2, 2, 4, 4, 3, 2, 2, 2, 9, 9, 8, 6, 5, 2, 1, 1, 1, 8, 7, 6, 1, 1, 1, 4, 3, 2, 4, 4, 4, 5, 5, 4, 8, 5, 5, 5, 3, 1, 8, 7, 6, 8, 8, 5, 4, 4, 4, 9, 8, 8, 6, 4, 4, 8, 7, 5, 4, 3, 3, 8, 4, 2, 2, 2, 2, 6, 6, 6, 5, 4, 3, 10, 4, 2, 8, 7, 6, 5, 4, 3, 7, 6, 6, 3, 2, 1, 5, 3, 3, 5, 5, 3, 8, 5, 3, 7, 6, 2, 7, 6, 4, 5, 2, 1, 9, 8, 8, 7, 7, 5, 8, 5, 4, 5, 4, 4, 6, 5, 5, 5, 4, 1, 3, 2, 2, 7, 6, 4, 8, 5, 4, 9, 7, 3, 9, 8, 8, 6, 4, 2, 8, 4, 2, 8, 6, 6, 8, 4, 4, 9, 9, 9, 9, 9, 9, 6, 5, 5, 8, 6, 3, 5, 4, 4, 9, 7, 7, 9, 8, 8, 8, 5, 2, 9, 9, 8, 3, 2, 2, 9, 8, 8, 8, 4, 2, 1, 1, 1, 5, 5, 5, 3, 1, 1, 3, 2, 2, 6, 3, 2, 9, 6, 3, 10, 7, 4, 8, 8, 6, 8, 6, 6, 7, 7, 7, 6, 5, 4, 6, 5, 4, 6, 6, 4, 6, 5, 5, 4, 2, 2, 3, 3, 2, 6, 5, 5, 8, 6, 4, 6, 2, 2, 5, 4, 4, 2, 1, 1, 6, 6, 4, 5, 5, 5, 2, 1, 1, 8, 5, 2, 2, 2, 2
 |9, 8, 5, 5, 4, 2, 9, 6, 4, 9, 7, 7, 5, 4, 4, 9, 4, 3, 5, 4, 3, 5, 3, 2, 5, 4, 3, 9, 8, 8, 4, 3, 2, 3, 1, 1, 3, 2, 1, 7, 6, 5, 5, 4, 3, 6, 5, 5, 8, 6, 5, 9, 6, 5, 8, 4, 3, 4, 4, 3, 6, 6, 6, 8, 6, 5, 9, 9, 8, 8, 8, 6, 7, 6, 6, 3, 2, 1, 9, 7, 5, 7, 7, 6, 6, 3, 2, 4, 3, 3, 6, 4, 4, 9, 8, 7, 4, 2, 1, 9, 8, 7, 9, 9, 9, 5, 3, 2, 8, 7, 6, 4, 3, 2, 6, 4, 4, 7, 5, 4, 7, 4, 1, 4, 3, 3, 9, 8, 5, 8, 5, 4, 8, 4, 4, 9, 9, 9, 9, 9, 8, 7, 6, 4, 9, 8, 7, 10, 9, 7, 8, 7, 6, 8, 5, 3, 8, 7, 7, 5, 4, 4, 3, 2, 1, 5, 4, 3, 9, 3, 3, 5, 4, 4, 6, 6, 6, 8, 7, 3, 7, 6, 6, 6, 6, 6, 8, 6, 5, 7, 5, 4, 9, 8, 5, 8, 5, 3, 9, 6, 4, 6, 6, 5, 1, 2, 1, 7, 6, 4, 9, 9, 9, 5, 5, 1, 7, 6, 5, 4, 3, 3, 4, 3, 2, 9, 8, 7, 7, 6, 3, 8, 7, 5, 8, 7, 6, 6, 4, 1, 10, 8, 7, 6, 5, 3, 9, 8, 7, 9, 7, 5, 6, 6, 3, 9, 9, 9, 9, 9, 7, 6, 4, 4, 8, 6, 5, 8, 5, 3, 9, 9, 8, 6, 3, 2, 8, 7, 6, 8, 7, 6, 8, 7, 4, 9, 8, 7, 8, 7, 7, 8, 6, 5, 10, 7, 7, 4, 4, 3|];